
===== New CPLEX run =====
Instance: /home/yorig/tuner/mpils-tests/instances/miplib/easy/lotsize.mps
Config: /scratch/yorig/mpils-results-grid-seconds-5-watchdog/easy/24proc/seed-5/4_lotsize_seed-5_20260504_011421/iterated_local_search/run_2_worker_21/ils_config_2607490956809671561.prm
========================

Selected objective sense:  MINIMIZE
Selected objective  name:  R1921
Selected RHS        name:  B
Selected bound      name:  BOUND
Wall watchdog: enabled factor=1 grace=1 limit=6 seconds
Version identifier: 22.1.2.0 | 2024-11-26 | 0edbb82fd
CPXPARAM_Threads                                 8
CPXPARAM_Parallel                                1
CPXPARAM_MIP_Cuts_Covers                         3
CPXPARAM_MIP_Cuts_FlowCovers                     2
CPXPARAM_MIP_Cuts_Implied                        1
CPXPARAM_MIP_Limits_GomoryCand                   150
CPXPARAM_MIP_Cuts_Gomory                         1
CPXPARAM_MIP_Cuts_PathCut                        -1
CPXPARAM_MIP_Cuts_MIRCut                         2
CPXPARAM_Emphasis_MIP                            3
CPXPARAM_TimeLimit                               5
CPXPARAM_MIP_Limits_CutsFactor                   8
Tried aggregator 1 time.
MIP Presolve eliminated 595 rows and 0 columns.
MIP Presolve added 1190 rows and 0 columns.
MIP Presolve modified 10 coefficients.
Reduced MIP has 2515 rows, 2985 columns, and 7755 nonzeros.
Reduced MIP has 1195 binaries, 0 generals, 0 SOSs, and 0 indicators.
Presolve time = 0.00 sec. (4.53 ticks)
Probing fixed 0 vars, tightened 5487 bounds.
Probing time = 0.01 sec. (18.38 ticks)
Tried aggregator 2 times.
Detecting symmetries...
MIP Presolve modified 1206 coefficients.
Aggregator did 10 substitutions.
Reduced MIP has 2505 rows, 2975 columns, and 7735 nonzeros.
Reduced MIP has 1195 binaries, 0 generals, 0 SOSs, and 0 indicators.
Presolve time = 0.00 sec. (6.66 ticks)
Probing fixed 0 vars, tightened 2401 bounds.
Probing time = 0.00 sec. (6.41 ticks)
Clique table members: 160.
MIP emphasis: best bound.
MIP search method: dynamic search.
Parallel mode: deterministic, using up to 8 threads.
Root relaxation solution time = 0.01 sec. (9.68 ticks)

        Nodes                                         Cuts/
   Node  Left     Objective  IInf  Best Integer    Best Bound    ItCnt     Gap

      0     0   348385.3466   472                 348385.3466      882         
      0     0   536765.8057   537                   Cuts: 726     1945         
      0     0   792824.2170   592                   Cuts: 726     2833         
*     0+    0                       1.01740e+07   792824.2170            92.21%
*     0+    0                      7973370.0000   792824.2170            90.06%
      0     0   936791.2649   614  7973370.0000     Cuts: 726     3602   88.25%
      0     0  1041611.0971   609  7973370.0000     Cuts: 726     4314   86.36%
*     0+    0                      2016180.0000  1087548.5995            46.06%
      0     0  1138683.7921   633  2016180.0000     Cuts: 726     5046   41.46%
Detecting symmetries...
      0     0  1194719.5718   653  2016180.0000     Cuts: 726     5771   38.39%
      0     0  1239335.8218   702  2016180.0000     Cuts: 726     6426   37.92%
      0     0  1262448.1740   746  2016180.0000     Cuts: 726     6985   37.00%
      0     0  1285872.8300   768  2016180.0000     Cuts: 644     7521   36.22%
      0     0  1297867.0211   801  2016180.0000     Cuts: 494     8029   35.63%
*     0+    0                      2007518.0000  1297867.0211            35.35%
      0     0  1307225.0627   786  2007518.0000     Cuts: 457     8417   34.88%
      0     0  1312408.2792   817  2007518.0000     Cuts: 366     8760   34.63%
      0     0  1315333.9275   831  2007518.0000     Cuts: 288     8991   34.48%
      0     0  1319309.7527   829  2007518.0000     Cuts: 247     9266   34.28%
      0     0  1322549.6259   844  2007518.0000     Cuts: 185     9466   34.12%
      0     0  1324148.5789   845  2007518.0000     Cuts: 161     9629   34.04%
      0     0  1326007.1528   853  2007518.0000     Cuts: 235     9803   33.95%
      0     0  1327347.9251   847  2007518.0000     Cuts: 192     9966   33.88%
      0     0  1328606.4519   851  2007518.0000     Cuts: 139    10106   33.82%
      0     0  1329603.4646   860  2007518.0000     Cuts: 100    10200   33.77%
      0     0  1330999.7401   840  2007518.0000     Cuts: 171    10338   33.70%
      0     0  1332305.7070   848  2007518.0000     Cuts: 140    10466   33.63%
      0     0  1333447.3229   847  2007518.0000     Cuts: 111    10579   33.58%
*     0+    0                      1936136.0000  1333447.3229            31.13%
      0     0  1334279.5989   860  1936136.0000     Cuts: 143    10681   31.09%
      0     0  1334881.0093   844  1936136.0000      Cuts: 77    10790   31.05%
*     0+    0                      1807987.0000  1334881.0093            26.17%
      0     0  1335814.8866   855  1807987.0000     Cuts: 141    10905   26.12%
      0     0  1336746.3235   868  1807987.0000      Cuts: 85    11007   26.06%

Cover cuts applied:  10
Implied bound cuts applied:  18
Flow cuts applied:  459
Mixed integer rounding cuts applied:  1046
Multi commodity flow cuts applied:  62
Lift and project cuts applied:  40
Gomory fractional cuts applied:  5

Root node processing (before b&c):
  Real time             =    5.01 sec. (8475.07 ticks)
Parallel b&c, 8 threads:
  Real time             =    0.00 sec. (0.00 ticks)
  Sync time (average)   =    0.00 sec.
  Wait time (average)   =    0.00 sec.
                          ------------
Total (root+branch&cut) =    5.01 sec. (8475.07 ticks)
Gap: 26.06%
Upper bound: 1.80799e+06
Lower bound: 1.33675e+06
Termination status: Normal
End of CPLEX run. Time: 5.01535 seconds

===== New CPLEX run =====
Instance: /home/yorig/tuner/mpils-tests/instances/miplib/easy/lotsize.mps
Config: /scratch/yorig/mpils-results-grid-seconds-5-watchdog/easy/24proc/seed-5/4_lotsize_seed-5_20260504_011421/iterated_local_search/run_2_worker_21/ils_config_13313431434657551461.prm
========================

Selected objective sense:  MINIMIZE
Selected objective  name:  R1921
Selected RHS        name:  B
Selected bound      name:  BOUND
Wall watchdog: enabled factor=1 grace=1 limit=6 seconds
Version identifier: 22.1.2.0 | 2024-11-26 | 0edbb82fd
CPXPARAM_Threads                                 8
CPXPARAM_Parallel                                1
CPXPARAM_MIP_Cuts_Covers                         3
CPXPARAM_MIP_Cuts_FlowCovers                     2
CPXPARAM_MIP_Cuts_Implied                        1
CPXPARAM_MIP_Limits_GomoryCand                   150
CPXPARAM_MIP_Cuts_Gomory                         1
CPXPARAM_MIP_Cuts_PathCut                        1
CPXPARAM_MIP_Cuts_MIRCut                         2
CPXPARAM_Emphasis_MIP                            3
CPXPARAM_TimeLimit                               5
CPXPARAM_MIP_Limits_CutsFactor                   8
Tried aggregator 1 time.
MIP Presolve eliminated 595 rows and 0 columns.
MIP Presolve added 1190 rows and 0 columns.
MIP Presolve modified 10 coefficients.
Reduced MIP has 2515 rows, 2985 columns, and 7755 nonzeros.
Reduced MIP has 1195 binaries, 0 generals, 0 SOSs, and 0 indicators.
Presolve time = 0.00 sec. (4.53 ticks)
Probing fixed 0 vars, tightened 5487 bounds.
Probing time = 0.01 sec. (18.38 ticks)
Tried aggregator 2 times.
Detecting symmetries...
MIP Presolve modified 1206 coefficients.
Aggregator did 10 substitutions.
Reduced MIP has 2505 rows, 2975 columns, and 7735 nonzeros.
Reduced MIP has 1195 binaries, 0 generals, 0 SOSs, and 0 indicators.
Presolve time = 0.00 sec. (6.66 ticks)
Probing fixed 0 vars, tightened 2401 bounds.
Probing time = 0.00 sec. (6.41 ticks)
Clique table members: 160.
MIP emphasis: best bound.
MIP search method: dynamic search.
Parallel mode: deterministic, using up to 8 threads.
Root relaxation solution time = 0.01 sec. (9.68 ticks)

        Nodes                                         Cuts/
   Node  Left     Objective  IInf  Best Integer    Best Bound    ItCnt     Gap

      0     0   348385.3466   472                 348385.3466      882         
      0     0   536765.8057   537                   Cuts: 726     1945         
      0     0   768167.0770   648                   Cuts: 726     2817         
*     0+    0                       1.01740e+07   768167.0770            92.45%
*     0+    0                      7973370.0000   768167.0770            90.37%
      0     0   901995.2653   720  7973370.0000     Cuts: 726     3603   88.52%
      0     0  1014021.1526   707  7973370.0000     Cuts: 726     4376   86.57%
*     0+    0                      2016180.0000  1070494.9942            46.90%
      0     0  1109106.9209   705  2016180.0000     Cuts: 726     5112   42.26%
Detecting symmetries...
      0     0  1180264.3889   749  2016180.0000     Cuts: 726     5772   39.61%
      0     0  1223733.4400   768  2016180.0000     Cuts: 726     6332   38.85%
      0     0  1250663.4265   764  2016180.0000     Cuts: 726     6931   37.17%
      0     0  1276577.5014   769  2016180.0000     Cuts: 726     7553   36.15%
*     0+    0                      1999504.0000  1287280.5872            35.62%
      0     0  1294834.5268   802  1999504.0000     Cuts: 610     8257   35.23%
*     0+    0                      1953114.0000  1295055.8276            33.69%
      0     0  1307720.5544   800  1953114.0000     Cuts: 518     8755   33.04%
      0     0  1315586.1788   819  1953114.0000     Cuts: 477     9228   32.64%
      0     0  1320986.0739   809  1953114.0000     Cuts: 270     9566   32.37%
*     0+    0                      1947134.0000  1320986.0739            32.16%
      0     0  1324152.9500   854  1947134.0000     Cuts: 322     9835   31.99%
      0     0  1326552.7483   852  1947134.0000     Cuts: 228    10070   31.87%
      0     0  1329235.0257   852  1947134.0000     Cuts: 223    10305   31.73%
      0     0  1331665.5137   863  1947134.0000     Cuts: 188    10535   31.61%
      0     0  1333397.4541   867  1947134.0000     Cuts: 206    10731   31.52%
      0     0  1335142.1649   862  1947134.0000     Cuts: 160    10915   31.43%
      0     0  1336082.8674   855  1947134.0000     Cuts: 193    11056   31.38%
      0     0  1336895.3990   859  1947134.0000     Cuts: 122    11160   31.34%
*     0+    0                      1766277.0000  1336895.3990            24.31%
      0     0  1337746.6003   856  1766277.0000     Cuts: 104    11264   24.26%

Cover cuts applied:  11
Implied bound cuts applied:  19
Flow cuts applied:  470
Mixed integer rounding cuts applied:  1097
Flow path cuts applied:  39
Multi commodity flow cuts applied:  58
Lift and project cuts applied:  45
Gomory fractional cuts applied:  5

Root node processing (before b&c):
  Real time             =    5.01 sec. (8604.61 ticks)
Parallel b&c, 8 threads:
  Real time             =    0.00 sec. (0.00 ticks)
  Sync time (average)   =    0.00 sec.
  Wait time (average)   =    0.00 sec.
                          ------------
Total (root+branch&cut) =    5.01 sec. (8604.61 ticks)
Gap: 24.26%
Upper bound: 1.76628e+06
Lower bound: 1.33775e+06
Termination status: Normal
End of CPLEX run. Time: 5.01616 seconds

===== New CPLEX run =====
Instance: /home/yorig/tuner/mpils-tests/instances/miplib/easy/lotsize.mps
Config: /scratch/yorig/mpils-results-grid-seconds-5-watchdog/easy/24proc/seed-5/4_lotsize_seed-5_20260504_011421/iterated_local_search/run_2_worker_21/ils_config_5482761774024660572.prm
========================

Selected objective sense:  MINIMIZE
Selected objective  name:  R1921
Selected RHS        name:  B
Selected bound      name:  BOUND
Wall watchdog: enabled factor=1 grace=1 limit=6 seconds
Version identifier: 22.1.2.0 | 2024-11-26 | 0edbb82fd
CPXPARAM_Threads                                 8
CPXPARAM_Parallel                                1
CPXPARAM_MIP_Cuts_Covers                         3
CPXPARAM_MIP_Cuts_FlowCovers                     2
CPXPARAM_MIP_Cuts_Implied                        1
CPXPARAM_MIP_Limits_GomoryCand                   150
CPXPARAM_MIP_Cuts_Gomory                         1
CPXPARAM_MIP_Cuts_PathCut                        1
CPXPARAM_MIP_Cuts_MIRCut                         2
CPXPARAM_Emphasis_MIP                            5
CPXPARAM_TimeLimit                               5
CPXPARAM_MIP_Limits_CutsFactor                   8
Tried aggregator 1 time.
MIP Presolve eliminated 595 rows and 0 columns.
MIP Presolve added 1190 rows and 0 columns.
MIP Presolve modified 10 coefficients.
Reduced MIP has 2515 rows, 2985 columns, and 7755 nonzeros.
Reduced MIP has 1195 binaries, 0 generals, 0 SOSs, and 0 indicators.
Presolve time = 0.00 sec. (4.53 ticks)
Probing fixed 0 vars, tightened 5487 bounds.
Probing time = 0.01 sec. (18.38 ticks)
Tried aggregator 2 times.
Detecting symmetries...
MIP Presolve modified 1206 coefficients.
Aggregator did 10 substitutions.
Reduced MIP has 2505 rows, 2975 columns, and 7735 nonzeros.
Reduced MIP has 1195 binaries, 0 generals, 0 SOSs, and 0 indicators.
Presolve time = 0.00 sec. (6.66 ticks)
Probing fixed 0 vars, tightened 2401 bounds.
Probing time = 0.00 sec. (6.41 ticks)
Clique table members: 190.
MIP emphasis: heuristic.
MIP search method: dynamic search.
Parallel mode: deterministic, using up to 8 threads.
Root relaxation solution time = 0.01 sec. (9.71 ticks)

        Nodes                                         Cuts/
   Node  Left     Objective  IInf  Best Integer    Best Bound    ItCnt     Gap

      0     0   348385.3466   472                 348385.3466      882         
*     0+    0                       1.40386e+07   348385.3466            97.52%
*     0+    0                       1.01740e+07   348385.3466            96.58%
*     0+    0                      7973370.0000   348385.3466            95.63%
      0     0   536363.0918   524  7973370.0000     Cuts: 726     1973   87.29%
*     0+    0                      1940615.0000  1013315.3346            47.78%
      0     0   762280.9884   668  1940615.0000     Cuts: 726     2878   44.62%
      0     0   926573.5083   725  1940615.0000     Cuts: 726     3676   41.67%
      0     0  1078022.2263   671  1940615.0000     Cuts: 726     4572   38.26%
      0     0  1174432.8986   664  1940615.0000     Cuts: 726     5279   36.86%
Detecting symmetries...
      0     0  1217762.9125   732  1940615.0000     Cuts: 726     5859   35.53%
      0     0  1247489.7272   754  1940615.0000     Cuts: 726     6459   34.79%
      0     0  1268577.9986   802  1940615.0000     Cuts: 611     7024   34.15%
      0     0  1281878.2724   831  1940615.0000     Cuts: 565     7522   33.83%
*     0+    0                      1918154.0000  1284062.9182            33.06%
      0     0  1288821.1027   804  1918154.0000     Cuts: 402     7872   32.81%
      0     0  1294643.9829   838  1918154.0000     Cuts: 326     8181   32.51%
      0     0  1297973.1146   857  1918154.0000     Cuts: 343     8457   32.33%
*     0+    0                      1835126.0000  1297973.1146            29.27%
      0     0  1303702.5084   842  1835126.0000     Cuts: 292     8730   28.96%
*     0+    0                      1761535.0000  1303702.5084            25.99%
      0     0  1306659.4295   850  1761535.0000     Cuts: 253     8962   25.82%
      0     0  1309941.1961   863  1761535.0000     Cuts: 218     9171   25.64%

Cover cuts applied:  12
Implied bound cuts applied:  29
Flow cuts applied:  539
Mixed integer rounding cuts applied:  1158
Flow path cuts applied:  39
Multi commodity flow cuts applied:  48
Gomory fractional cuts applied:  8

Root node processing (before b&c):
  Real time             =    5.01 sec. (8579.11 ticks)
Parallel b&c, 8 threads:
  Real time             =    0.00 sec. (0.00 ticks)
  Sync time (average)   =    0.00 sec.
  Wait time (average)   =    0.00 sec.
                          ------------
Total (root+branch&cut) =    5.01 sec. (8579.11 ticks)
Gap: 25.64%
Upper bound: 1.76153e+06
Lower bound: 1.30994e+06
Termination status: Normal
End of CPLEX run. Time: 5.01477 seconds

===== New CPLEX run =====
Instance: /home/yorig/tuner/mpils-tests/instances/miplib/easy/lotsize.mps
Config: /scratch/yorig/mpils-results-grid-seconds-5-watchdog/easy/24proc/seed-5/4_lotsize_seed-5_20260504_011421/iterated_local_search/run_2_worker_21/ils_config_17596714314274025996.prm
========================

Selected objective sense:  MINIMIZE
Selected objective  name:  R1921
Selected RHS        name:  B
Selected bound      name:  BOUND
Wall watchdog: enabled factor=1 grace=1 limit=6 seconds
Version identifier: 22.1.2.0 | 2024-11-26 | 0edbb82fd
CPXPARAM_Threads                                 8
CPXPARAM_Parallel                                1
CPXPARAM_MIP_Cuts_Covers                         3
CPXPARAM_MIP_Cuts_FlowCovers                     2
CPXPARAM_MIP_Cuts_Implied                        1
CPXPARAM_MIP_Limits_GomoryCand                   50
CPXPARAM_MIP_Cuts_Gomory                         1
CPXPARAM_MIP_Cuts_PathCut                        1
CPXPARAM_MIP_Cuts_MIRCut                         2
CPXPARAM_Emphasis_MIP                            3
CPXPARAM_TimeLimit                               5
CPXPARAM_MIP_Limits_CutsFactor                   8
Tried aggregator 1 time.
MIP Presolve eliminated 595 rows and 0 columns.
MIP Presolve added 1190 rows and 0 columns.
MIP Presolve modified 10 coefficients.
Reduced MIP has 2515 rows, 2985 columns, and 7755 nonzeros.
Reduced MIP has 1195 binaries, 0 generals, 0 SOSs, and 0 indicators.
Presolve time = 0.00 sec. (4.53 ticks)
Probing fixed 0 vars, tightened 5487 bounds.
Probing time = 0.01 sec. (18.38 ticks)
Tried aggregator 2 times.
Detecting symmetries...
MIP Presolve modified 1206 coefficients.
Aggregator did 10 substitutions.
Reduced MIP has 2505 rows, 2975 columns, and 7735 nonzeros.
Reduced MIP has 1195 binaries, 0 generals, 0 SOSs, and 0 indicators.
Presolve time = 0.00 sec. (6.66 ticks)
Probing fixed 0 vars, tightened 2401 bounds.
Probing time = 0.00 sec. (6.41 ticks)
Clique table members: 160.
MIP emphasis: best bound.
MIP search method: dynamic search.
Parallel mode: deterministic, using up to 8 threads.
Root relaxation solution time = 0.01 sec. (9.68 ticks)

        Nodes                                         Cuts/
   Node  Left     Objective  IInf  Best Integer    Best Bound    ItCnt     Gap

      0     0   348385.3466   472                 348385.3466      882         
      0     0   572592.9729   480                   Cuts: 726     1896         
      0     0   805664.9824   665                   Cuts: 726     2766         
*     0+    0                       1.01740e+07   805664.9824            92.08%
*     0+    0                      7973370.0000   805664.9824            89.90%
      0     0   950853.0039   677  7973370.0000     Cuts: 726     3491   88.07%
      0     0  1048634.7815   747  7973370.0000     Cuts: 726     4169   86.31%
*     0+    0                      2016180.0000  1091453.8142            45.87%
      0     0  1134993.0886   716  2016180.0000     Cuts: 726     4920   43.45%
Detecting symmetries...
      0     0  1182821.6928   742  2016180.0000     Cuts: 726     5568   40.33%
      0     0  1221946.0969   722  2016180.0000     Cuts: 726     6229   38.60%
      0     0  1252582.0449   749  2016180.0000     Cuts: 726     6846   37.42%
      0     0  1274439.7006   786  2016180.0000     Cuts: 726     7359   36.61%
      0     0  1291173.0921   757  2016180.0000     Cuts: 555     7877   35.96%
      0     0  1300493.7097   834  2016180.0000     Cuts: 442     8264   35.50%
*     0+    0                      2011857.0000  1300493.7097            35.36%
      0     0  1308528.7337   854  2011857.0000     Cuts: 513     8685   34.96%
      0     0  1312979.5911   861  2011857.0000     Cuts: 347     9008   34.74%
      0     0  1315418.6391   876  2011857.0000     Cuts: 258     9195   34.62%
      0     0  1317786.7043   872  2011857.0000     Cuts: 192     9433   34.50%
      0     0  1320247.6674   868  2011857.0000     Cuts: 217     9682   34.38%
      0     0  1322325.6996   885  2011857.0000     Cuts: 214     9877   34.27%
      0     0  1323878.7040   879  2011857.0000     Cuts: 155    10043   34.20%
      0     0  1324977.1025   891  2011857.0000     Cuts: 142    10200   34.14%
      0     0  1325353.8492   896  2011857.0000     Cuts: 102    10314   34.12%
      0     0  1325630.8741   885  2011857.0000      Cuts: 99    10417   34.11%

Clique cuts applied:  1
Cover cuts applied:  12
Implied bound cuts applied:  15
Flow cuts applied:  464
Mixed integer rounding cuts applied:  1075
Flow path cuts applied:  29
Multi commodity flow cuts applied:  65
Lift and project cuts applied:  37
Gomory fractional cuts applied:  2

Root node processing (before b&c):
  Real time             =    5.01 sec. (8627.08 ticks)
Parallel b&c, 8 threads:
  Real time             =    0.00 sec. (0.00 ticks)
  Sync time (average)   =    0.00 sec.
  Wait time (average)   =    0.00 sec.
                          ------------
Total (root+branch&cut) =    5.01 sec. (8627.08 ticks)
Gap: 34.11%
Upper bound: 2.01186e+06
Lower bound: 1.32563e+06
Termination status: Normal
End of CPLEX run. Time: 5.01318 seconds

===== New CPLEX run =====
Instance: /home/yorig/tuner/mpils-tests/instances/miplib/easy/lotsize.mps
Config: /scratch/yorig/mpils-results-grid-seconds-5-watchdog/easy/24proc/seed-5/4_lotsize_seed-5_20260504_011421/iterated_local_search/run_2_worker_21/ils_config_8130973612947382834.prm
========================

Selected objective sense:  MINIMIZE
Selected objective  name:  R1921
Selected RHS        name:  B
Selected bound      name:  BOUND
Wall watchdog: enabled factor=1 grace=1 limit=6 seconds
Version identifier: 22.1.2.0 | 2024-11-26 | 0edbb82fd
CPXPARAM_Threads                                 8
CPXPARAM_Parallel                                1
CPXPARAM_MIP_Cuts_Covers                         1
CPXPARAM_MIP_Cuts_FlowCovers                     2
CPXPARAM_MIP_Cuts_Implied                        1
CPXPARAM_MIP_Limits_GomoryCand                   150
CPXPARAM_MIP_Cuts_Gomory                         1
CPXPARAM_MIP_Cuts_PathCut                        1
CPXPARAM_MIP_Cuts_MIRCut                         2
CPXPARAM_Emphasis_MIP                            3
CPXPARAM_TimeLimit                               5
CPXPARAM_MIP_Limits_CutsFactor                   8
Tried aggregator 1 time.
MIP Presolve eliminated 595 rows and 0 columns.
MIP Presolve added 1190 rows and 0 columns.
MIP Presolve modified 10 coefficients.
Reduced MIP has 2515 rows, 2985 columns, and 7755 nonzeros.
Reduced MIP has 1195 binaries, 0 generals, 0 SOSs, and 0 indicators.
Presolve time = 0.00 sec. (4.53 ticks)
Probing fixed 0 vars, tightened 5487 bounds.
Probing time = 0.01 sec. (18.38 ticks)
Tried aggregator 2 times.
Detecting symmetries...
MIP Presolve modified 1206 coefficients.
Aggregator did 10 substitutions.
Reduced MIP has 2505 rows, 2975 columns, and 7735 nonzeros.
Reduced MIP has 1195 binaries, 0 generals, 0 SOSs, and 0 indicators.
Presolve time = 0.00 sec. (6.66 ticks)
Probing fixed 0 vars, tightened 2401 bounds.
Probing time = 0.00 sec. (6.41 ticks)
Clique table members: 160.
MIP emphasis: best bound.
MIP search method: dynamic search.
Parallel mode: deterministic, using up to 8 threads.
Root relaxation solution time = 0.01 sec. (9.68 ticks)

        Nodes                                         Cuts/
   Node  Left     Objective  IInf  Best Integer    Best Bound    ItCnt     Gap

      0     0   348385.3466   472                 348385.3466      882         
      0     0   536765.8057   537                   Cuts: 726     1945         
      0     0   767612.4615   648                   Cuts: 726     2830         
*     0+    0                       1.01740e+07   767612.4615            92.46%
*     0+    0                      7973370.0000   767612.4615            90.37%
      0     0   906367.3922   719  7973370.0000     Cuts: 726     3731   88.52%
      0     0  1014765.5662   705  7973370.0000     Cuts: 726     4469   86.57%
*     0+    0                      2016180.0000  1070495.2745            46.90%
      0     0  1113062.2327   710  2016180.0000     Cuts: 726     5142   42.26%
Detecting symmetries...
      0     0  1180609.3088   722  2016180.0000     Cuts: 726     5796   39.66%
      0     0  1226983.4385   722  2016180.0000     Cuts: 726     6364   38.95%
      0     0  1255607.1792   770  2016180.0000     Cuts: 678     6944   36.98%
      0     0  1280142.2988   792  2016180.0000     Cuts: 726     7538   36.33%
*     0+    0                      1949130.0000  1283753.9434            34.14%
      0     0  1294104.1131   807  1949130.0000     Cuts: 701     8078   33.54%
*     0+    0                      1938714.0000  1295398.9560            33.18%
      0     0  1306065.6806   830  1938714.0000     Cuts: 485     8563   32.63%
      0     0  1313654.4722   834  1938714.0000     Cuts: 477     9002   32.24%
      0     0  1318663.5213   856  1938714.0000     Cuts: 415     9385   31.98%
      0     0  1322319.4651   862  1938714.0000     Cuts: 398     9708   31.79%
      0     0  1325091.1569   862  1938714.0000     Cuts: 262     9924   31.65%
      0     0  1327026.7543   862  1938714.0000     Cuts: 275    10140   31.55%
      0     0  1328320.0004   855  1938714.0000     Cuts: 156    10296   31.48%
      0     0  1329262.1458   868  1938714.0000     Cuts: 159    10452   31.44%
      0     0  1329876.2147   866  1938714.0000     Cuts: 160    10578   31.40%
      0     0  1331317.3826   860  1938714.0000     Cuts: 101    10728   31.33%
      0     0  1332334.1583   862  1938714.0000     Cuts: 133    10822   31.28%
      0     0  1333059.8228   868  1938714.0000      Cuts: 84    10909   31.24%
      0     0  1333744.3504   874  1938714.0000      Cuts: 90    11037   31.20%
      0     0  1334299.0106   873  1938714.0000     Cuts: 111    11138   31.18%
*     0+    0                      1823753.0000  1334299.0106            26.84%
      0     0  1334672.4618   890  1823753.0000     Cuts: 122    11255   26.82%
      0     0  1334996.5883   870  1823753.0000     Cuts: 101    11339   26.80%

Cover cuts applied:  10
Implied bound cuts applied:  22
Flow cuts applied:  460
Mixed integer rounding cuts applied:  1046
Flow path cuts applied:  29
Zero-half cuts applied:  1
Multi commodity flow cuts applied:  59
Lift and project cuts applied:  47
Gomory fractional cuts applied:  5

Root node processing (before b&c):
  Real time             =    5.01 sec. (8595.70 ticks)
Parallel b&c, 8 threads:
  Real time             =    0.00 sec. (0.00 ticks)
  Sync time (average)   =    0.00 sec.
  Wait time (average)   =    0.00 sec.
                          ------------
Total (root+branch&cut) =    5.01 sec. (8595.70 ticks)
Gap: 26.8%
Upper bound: 1.82375e+06
Lower bound: 1.335e+06
Termination status: Normal
End of CPLEX run. Time: 5.01889 seconds

===== New CPLEX run =====
Instance: /home/yorig/tuner/mpils-tests/instances/miplib/easy/lotsize.mps
Config: /scratch/yorig/mpils-results-grid-seconds-5-watchdog/easy/24proc/seed-5/4_lotsize_seed-5_20260504_011421/iterated_local_search/run_2_worker_21/ils_config_14661092012174207373.prm
========================

Selected objective sense:  MINIMIZE
Selected objective  name:  R1921
Selected RHS        name:  B
Selected bound      name:  BOUND
Wall watchdog: enabled factor=1 grace=1 limit=6 seconds
Version identifier: 22.1.2.0 | 2024-11-26 | 0edbb82fd
CPXPARAM_Threads                                 8
CPXPARAM_Parallel                                1
CPXPARAM_MIP_Cuts_Covers                         3
CPXPARAM_MIP_Cuts_FlowCovers                     2
CPXPARAM_MIP_Cuts_Implied                        1
CPXPARAM_MIP_Limits_GomoryCand                   150
CPXPARAM_MIP_Cuts_Gomory                         1
CPXPARAM_MIP_Cuts_PathCut                        1
CPXPARAM_MIP_Cuts_MIRCut                         2
CPXPARAM_MIP_Cuts_Disjunctive                    1
CPXPARAM_Emphasis_MIP                            3
CPXPARAM_TimeLimit                               5
CPXPARAM_MIP_Limits_CutsFactor                   8
Tried aggregator 1 time.
MIP Presolve eliminated 595 rows and 0 columns.
MIP Presolve added 1190 rows and 0 columns.
MIP Presolve modified 10 coefficients.
Reduced MIP has 2515 rows, 2985 columns, and 7755 nonzeros.
Reduced MIP has 1195 binaries, 0 generals, 0 SOSs, and 0 indicators.
Presolve time = 0.00 sec. (4.53 ticks)
Probing fixed 0 vars, tightened 5487 bounds.
Probing time = 0.01 sec. (18.38 ticks)
Tried aggregator 2 times.
Detecting symmetries...
MIP Presolve modified 1206 coefficients.
Aggregator did 10 substitutions.
Reduced MIP has 2505 rows, 2975 columns, and 7735 nonzeros.
Reduced MIP has 1195 binaries, 0 generals, 0 SOSs, and 0 indicators.
Presolve time = 0.00 sec. (6.66 ticks)
Probing fixed 0 vars, tightened 2401 bounds.
Probing time = 0.00 sec. (6.41 ticks)
Clique table members: 160.
MIP emphasis: best bound.
MIP search method: dynamic search.
Parallel mode: deterministic, using up to 8 threads.
Root relaxation solution time = 0.01 sec. (9.68 ticks)

        Nodes                                         Cuts/
   Node  Left     Objective  IInf  Best Integer    Best Bound    ItCnt     Gap

      0     0   348385.3466   472                 348385.3466      882         
      0     0   536765.8057   537                   Cuts: 726     1945         
      0     0   768167.0770   648                   Cuts: 726     2817         
*     0+    0                       1.01740e+07   768167.0770            92.45%
*     0+    0                      7973370.0000   768167.0770            90.37%
      0     0   901995.2653   720  7973370.0000     Cuts: 726     3603   88.52%
      0     0  1014021.1526   707  7973370.0000     Cuts: 726     4376   86.57%
*     0+    0                      2016180.0000  1070494.9942            46.90%
      0     0  1109106.9209   705  2016180.0000     Cuts: 726     5112   42.26%
Detecting symmetries...
      0     0  1180264.3889   749  2016180.0000     Cuts: 726     5772   39.61%
      0     0  1223733.4400   768  2016180.0000     Cuts: 726     6332   38.85%
      0     0  1250663.4265   764  2016180.0000     Cuts: 726     6931   37.17%
      0     0  1276577.5014   769  2016180.0000     Cuts: 726     7553   36.15%
*     0+    0                      1999504.0000  1287280.5872            35.62%
      0     0  1294834.5268   802  1999504.0000     Cuts: 610     8257   35.23%
*     0+    0                      1953114.0000  1295055.8276            33.69%
      0     0  1307720.5544   800  1953114.0000     Cuts: 518     8755   33.04%
      0     0  1315586.1788   819  1953114.0000     Cuts: 477     9228   32.64%
      0     0  1320986.0739   809  1953114.0000     Cuts: 270     9566   32.37%
*     0+    0                      1947134.0000  1320986.0739            32.16%
      0     0  1324152.9500   854  1947134.0000     Cuts: 322     9835   31.99%
      0     0  1326552.7483   852  1947134.0000     Cuts: 228    10070   31.87%
      0     0  1329235.0257   852  1947134.0000     Cuts: 223    10305   31.73%
      0     0  1331665.5137   863  1947134.0000     Cuts: 188    10535   31.61%
      0     0  1333397.4541   867  1947134.0000     Cuts: 206    10731   31.52%
      0     0  1335142.1649   862  1947134.0000     Cuts: 160    10915   31.43%
      0     0  1336082.8674   855  1947134.0000     Cuts: 193    11056   31.38%
      0     0  1336895.3990   859  1947134.0000     Cuts: 122    11160   31.34%
*     0+    0                      1766277.0000  1336895.3990            24.31%
      0     0  1337746.6003   856  1766277.0000     Cuts: 104    11264   24.26%

Cover cuts applied:  11
Implied bound cuts applied:  19
Flow cuts applied:  470
Mixed integer rounding cuts applied:  1097
Flow path cuts applied:  39
Multi commodity flow cuts applied:  58
Lift and project cuts applied:  45
Gomory fractional cuts applied:  5
Disjunctive cuts applied:  0
Cone linearizations applied:  0

Root node processing (before b&c):
  Real time             =    5.01 sec. (8607.05 ticks)
Parallel b&c, 8 threads:
  Real time             =    0.00 sec. (0.00 ticks)
  Sync time (average)   =    0.00 sec.
  Wait time (average)   =    0.00 sec.
                          ------------
Total (root+branch&cut) =    5.01 sec. (8607.05 ticks)
Gap: 24.26%
Upper bound: 1.76628e+06
Lower bound: 1.33775e+06
Termination status: Normal
End of CPLEX run. Time: 5.01656 seconds
